
Gurobi 9.5.2 (linux64, Java) logging started ven 10 feb 2023, 01:04:42

Set parameter Username
Academic license - for non-commercial use only - expires 2023-12-01
Warning: Gurobi version mismatch between Java 9.5.1 and C library 9.5.2
Warning: Gurobi version mismatch between Java 9.5.1 and Jni 9.5.2
Set parameter Presolve to value 0
Gurobi Optimizer version 9.5.2 build v9.5.2rc0 (linux64)
Thread count: 2 physical cores, 4 logical processors, using up to 4 threads
Optimize a model with 286107 rows, 6790 columns and 987180 nonzeros
Model fingerprint: 0xef09a6f7
Variable types: 0 continuous, 6790 integer (6790 binary)
Coefficient statistics:
  Matrix range     [1e+00, 5e+01]
  Objective range  [5e+00, 5e+00]
  Bounds range     [1e+00, 1e+00]
  RHS range        [1e+00, 4e+02]
Variable types: 0 continuous, 6790 integer (6790 binary)

Root simplex log...

Iteration    Objective       Primal Inf.    Dual Inf.      Time
    2809    8.2000044e+03   1.097266e+05   0.000000e+00      5s
    5383    8.2000049e+03   5.068615e+05   0.000000e+00     10s
    6481    8.2000050e+03   6.899238e+05   0.000000e+00     15s
    7593    8.2000051e+03   1.048850e+05   0.000000e+00     20s
    9007    8.2000051e+03   1.150218e+04   0.000000e+00     26s
   10105    8.2000051e+03   1.889417e+00   0.000000e+00     31s
   10174    8.2000000e+03   0.000000e+00   0.000000e+00     32s

Root relaxation: objective 8.200000e+03, 10174 iterations, 29.18 seconds (23.72 work units)
Total elapsed time = 46.35s
Total elapsed time = 53.41s
Total elapsed time = 55.26s

    Nodes    |    Current Node    |     Objective Bounds      |     Work
 Expl Unexpl |  Obj  Depth IntInf | Incumbent    BestBd   Gap | It/Node Time

     0     0 8200.00000    0   14          - 8200.00000      -     -   58s
H    0     0                    8575.0000000 8200.00000  4.37%     -   61s
H    0     0                    8200.0000000 8200.00000  0.00%     -   61s

Explored 1 nodes (28556 simplex iterations) in 61.50 seconds (43.40 work units)
Thread count was 4 (of 4 available processors)

Solution count 2: 8200 8575 

Optimal solution found (tolerance 1.00e-04)
Best objective 8.200000000000e+03, best bound 8.200000000000e+03, gap 0.0000%
Gurobi Optimizer version 9.5.2 build v9.5.2rc0 (linux64)
Thread count: 2 physical cores, 4 logical processors, using up to 4 threads
Optimize a model with 286107 rows, 6790 columns and 987180 nonzeros
Model fingerprint: 0xef09a6f7
Variable types: 0 continuous, 6790 integer (6790 binary)
Coefficient statistics:
  Matrix range     [1e+00, 5e+01]
  Objective range  [5e+00, 5e+00]
  Bounds range     [1e+00, 1e+00]
  RHS range        [1e+00, 4e+02]

Loaded MIP start from previous solve with objective 8200

Variable types: 0 continuous, 6790 integer (6790 binary)

Root relaxation: cutoff, 9 iterations, 1.01 seconds (0.08 work units)

    Nodes    |    Current Node    |     Objective Bounds      |     Work
 Expl Unexpl |  Obj  Depth IntInf | Incumbent    BestBd   Gap | It/Node Time

     0     0     cutoff    0      8200.00000 8200.00000  0.00%     -    2s

Explored 1 nodes (9 simplex iterations) in 2.04 seconds (0.20 work units)
Thread count was 4 (of 4 available processors)

Solution count 1: 8200 

Optimal solution found (tolerance 1.00e-04)
Best objective 8.200000000000e+03, best bound 8.200000000000e+03, gap 0.0000%

Gurobi 9.5.2 (linux64, Java) logging started ven 10 feb 2023, 01:14:51

Set parameter Username
Academic license - for non-commercial use only - expires 2023-12-01
Warning: Gurobi version mismatch between Java 9.5.1 and C library 9.5.2
Warning: Gurobi version mismatch between Java 9.5.1 and Jni 9.5.2
Set parameter Presolve to value 0
Gurobi Optimizer version 9.5.2 build v9.5.2rc0 (linux64)
Thread count: 2 physical cores, 4 logical processors, using up to 4 threads
Optimize a model with 286107 rows, 6790 columns and 987180 nonzeros
Model fingerprint: 0xef09a6f7
Variable types: 0 continuous, 6790 integer (6790 binary)
Coefficient statistics:
  Matrix range     [1e+00, 5e+01]
  Objective range  [5e+00, 5e+00]
  Bounds range     [1e+00, 1e+00]
  RHS range        [1e+00, 4e+02]
Variable types: 0 continuous, 6790 integer (6790 binary)

Root simplex log...

Iteration    Objective       Primal Inf.    Dual Inf.      Time
    3667    8.2000046e+03   7.203042e+04   0.000000e+00      5s
    5669    8.2000049e+03   3.715466e+05   0.000000e+00     10s
    6767    8.2000050e+03   3.004869e+05   0.000000e+00     16s
    7593    8.2000051e+03   1.048850e+05   0.000000e+00     21s
    8721    8.2000051e+03   8.945119e+04   0.000000e+00     26s
    9865    8.2000051e+03   4.024574e+02   0.000000e+00     31s
   10174    8.2000000e+03   0.000000e+00   0.000000e+00     33s

Root relaxation: objective 8.200000e+03, 10174 iterations, 31.01 seconds (23.72 work units)
Total elapsed time = 47.04s
Total elapsed time = 53.26s
Total elapsed time = 56.44s

    Nodes    |    Current Node    |     Objective Bounds      |     Work
 Expl Unexpl |  Obj  Depth IntInf | Incumbent    BestBd   Gap | It/Node Time

     0     0 8200.00000    0   14          - 8200.00000      -     -   58s
H    0     0                    8575.0000000 8200.00000  4.37%     -   60s
H    0     0                    8200.0000000 8200.00000  0.00%     -   60s

Explored 1 nodes (28556 simplex iterations) in 60.96 seconds (43.40 work units)
Thread count was 4 (of 4 available processors)

Solution count 2: 8200 8575 

Optimal solution found (tolerance 1.00e-04)
Best objective 8.200000000000e+03, best bound 8.200000000000e+03, gap 0.0000%
Gurobi Optimizer version 9.5.2 build v9.5.2rc0 (linux64)
Thread count: 2 physical cores, 4 logical processors, using up to 4 threads
Optimize a model with 286107 rows, 6790 columns and 987180 nonzeros
Model fingerprint: 0xef09a6f7
Variable types: 0 continuous, 6790 integer (6790 binary)
Coefficient statistics:
  Matrix range     [1e+00, 5e+01]
  Objective range  [5e+00, 5e+00]
  Bounds range     [1e+00, 1e+00]
  RHS range        [1e+00, 4e+02]

Loaded MIP start from previous solve with objective 8200

Variable types: 0 continuous, 6790 integer (6790 binary)

Root relaxation: cutoff, 9 iterations, 0.52 seconds (0.08 work units)

    Nodes    |    Current Node    |     Objective Bounds      |     Work
 Expl Unexpl |  Obj  Depth IntInf | Incumbent    BestBd   Gap | It/Node Time

     0     0     cutoff    0      8200.00000 8200.00000  0.00%     -    1s

Explored 1 nodes (9 simplex iterations) in 1.27 seconds (0.20 work units)
Thread count was 4 (of 4 available processors)

Solution count 1: 8200 

Optimal solution found (tolerance 1.00e-04)
Best objective 8.200000000000e+03, best bound 8.200000000000e+03, gap 0.0000%

Gurobi 9.5.2 (linux64, Java) logging started ven 10 feb 2023, 01:16:33

Set parameter Username
Academic license - for non-commercial use only - expires 2023-12-01
Warning: Gurobi version mismatch between Java 9.5.1 and C library 9.5.2
Warning: Gurobi version mismatch between Java 9.5.1 and Jni 9.5.2
Presolve removed 152290 rows and 2240 columns
Presolve time: 4.68s
Gurobi Optimizer version 9.5.2 build v9.5.2rc0 (linux64)
Thread count: 2 physical cores, 4 logical processors, using up to 4 threads
Optimize a model with 286107 rows, 6790 columns and 987180 nonzeros
Model fingerprint: 0xef09a6f7
Variable types: 0 continuous, 6790 integer (6790 binary)
Coefficient statistics:
  Matrix range     [1e+00, 5e+01]
  Objective range  [5e+00, 5e+00]
  Bounds range     [1e+00, 1e+00]
  RHS range        [1e+00, 4e+02]
Presolve removed 152290 rows and 2240 columns
Presolve time: 3.54s
Presolved: 133817 rows, 4550 columns, 465755 nonzeros
Variable types: 0 continuous, 4550 integer (4550 binary)

Root simplex log...

Iteration    Objective       Primal Inf.    Dual Inf.      Time
       0      handle free variables                          5s
    1732    8.2000000e+03   0.000000e+00   0.000000e+00      5s
    1732    8.2000000e+03   0.000000e+00   0.000000e+00      5s

Use crossover to convert LP symmetric solution to basic solution...

Root crossover log...

       0 DPushes remaining with DInf 0.0000000e+00                 5s

     833 PPushes remaining with PInf 0.0000000e+00                 5s
       0 PPushes remaining with PInf 0.0000000e+00                 6s

  Push phase complete: Pinf 0.0000000e+00, Dinf 2.2204460e-13      6s


Root simplex log...

Iteration    Objective       Primal Inf.    Dual Inf.      Time
    2568    8.2000000e+03   0.000000e+00   0.000000e+00      6s
    2568    8.2000000e+03   0.000000e+00   0.000000e+00      6s

Root relaxation: objective 8.200000e+03, 2568 iterations, 1.43 seconds (0.62 work units)

    Nodes    |    Current Node    |     Objective Bounds      |     Work
 Expl Unexpl |  Obj  Depth IntInf | Incumbent    BestBd   Gap | It/Node Time

     0     0 8200.00000    0  153          - 8200.00000      -     -    9s
H    0     0                    8200.0000000 8200.00000  0.00%     -   10s
     0     0 8200.00000    0  153 8200.00000 8200.00000  0.00%     -   10s

Explored 1 nodes (4818 simplex iterations) in 10.07 seconds (5.59 work units)
Thread count was 4 (of 4 available processors)

Solution count 1: 8200 

Optimal solution found (tolerance 1.00e-04)
Best objective 8.200000000000e+03, best bound 8.200000000000e+03, gap 0.0000%
Gurobi Optimizer version 9.5.2 build v9.5.2rc0 (linux64)
Thread count: 2 physical cores, 4 logical processors, using up to 4 threads
Optimize a model with 286107 rows, 6790 columns and 987180 nonzeros
Model fingerprint: 0xef09a6f7
Variable types: 0 continuous, 6790 integer (6790 binary)
Coefficient statistics:
  Matrix range     [1e+00, 5e+01]
  Objective range  [5e+00, 5e+00]
  Bounds range     [1e+00, 1e+00]
  RHS range        [1e+00, 4e+02]

Loaded MIP start from previous solve with objective 8200

Presolve removed 152290 rows and 2240 columns
Presolve time: 3.86s
Presolved: 133817 rows, 4550 columns, 465755 nonzeros
Variable types: 0 continuous, 4550 integer (4550 binary)

Root simplex log...

Iteration    Objective       Primal Inf.    Dual Inf.      Time
    1732    0.0000000e+00   1.840000e+03   0.000000e+00      5s

Root relaxation: cutoff, 1738 iterations, 0.99 seconds (0.45 work units)

    Nodes    |    Current Node    |     Objective Bounds      |     Work
 Expl Unexpl |  Obj  Depth IntInf | Incumbent    BestBd   Gap | It/Node Time

     0     0     cutoff    0      8200.00000 8200.00000  0.00%     -    5s

Explored 1 nodes (1738 simplex iterations) in 5.13 seconds (3.24 work units)
Thread count was 4 (of 4 available processors)

Solution count 1: 8200 

Optimal solution found (tolerance 1.00e-04)
Best objective 8.200000000000e+03, best bound 8.200000000000e+03, gap 0.0000%

Gurobi 9.5.2 (linux64, Java) logging started ven 10 feb 2023, 01:17:20

Set parameter Username
Academic license - for non-commercial use only - expires 2023-12-01
Warning: Gurobi version mismatch between Java 9.5.1 and C library 9.5.2
Warning: Gurobi version mismatch between Java 9.5.1 and Jni 9.5.2
Set parameter Presolve to value 1
Presolve removed 153312 rows and 2170 columns
Presolve time: 3.24s
Gurobi Optimizer version 9.5.2 build v9.5.2rc0 (linux64)
Thread count: 2 physical cores, 4 logical processors, using up to 4 threads
Optimize a model with 286107 rows, 6790 columns and 987180 nonzeros
Model fingerprint: 0xef09a6f7
Variable types: 0 continuous, 6790 integer (6790 binary)
Coefficient statistics:
  Matrix range     [1e+00, 5e+01]
  Objective range  [5e+00, 5e+00]
  Bounds range     [1e+00, 1e+00]
  RHS range        [1e+00, 4e+02]
Presolve removed 153312 rows and 2170 columns
Presolve time: 2.65s
Presolved: 132795 rows, 4620 columns, 449363 nonzeros
Variable types: 0 continuous, 4620 integer (4550 binary)
Found heuristic solution: objective 8200.0000000

Root relaxation: cutoff, 2305 iterations, 1.07 seconds (0.37 work units)

    Nodes    |    Current Node    |     Objective Bounds      |     Work
 Expl Unexpl |  Obj  Depth IntInf | Incumbent    BestBd   Gap | It/Node Time

     0     0     cutoff    0      8200.00000 8200.00000  0.00%     -    4s

Explored 1 nodes (2305 simplex iterations) in 4.49 seconds (1.85 work units)
Thread count was 4 (of 4 available processors)

Solution count 1: 8200 

Optimal solution found (tolerance 1.00e-04)
Best objective 8.200000000000e+03, best bound 8.200000000000e+03, gap 0.0000%
Gurobi Optimizer version 9.5.2 build v9.5.2rc0 (linux64)
Thread count: 2 physical cores, 4 logical processors, using up to 4 threads
Optimize a model with 286107 rows, 6790 columns and 987180 nonzeros
Model fingerprint: 0xef09a6f7
Variable types: 0 continuous, 6790 integer (6790 binary)
Coefficient statistics:
  Matrix range     [1e+00, 5e+01]
  Objective range  [5e+00, 5e+00]
  Bounds range     [1e+00, 1e+00]
  RHS range        [1e+00, 4e+02]

Loaded MIP start from previous solve with objective 8200

Presolve removed 153312 rows and 2170 columns
Presolve time: 2.88s
Presolved: 132795 rows, 4620 columns, 449363 nonzeros
Variable types: 0 continuous, 4620 integer (4550 binary)

Root relaxation: cutoff, 2305 iterations, 0.92 seconds (0.37 work units)

    Nodes    |    Current Node    |     Objective Bounds      |     Work
 Expl Unexpl |  Obj  Depth IntInf | Incumbent    BestBd   Gap | It/Node Time

     0     0     cutoff    0      8200.00000 8200.00000  0.00%     -    4s

Explored 1 nodes (2305 simplex iterations) in 4.21 seconds (1.74 work units)
Thread count was 4 (of 4 available processors)

Solution count 1: 8200 

Optimal solution found (tolerance 1.00e-04)
Best objective 8.200000000000e+03, best bound 8.200000000000e+03, gap 0.0000%

Gurobi 9.5.2 (linux64, Java) logging started ven 10 feb 2023, 01:18:01

Set parameter Username
Academic license - for non-commercial use only - expires 2023-12-01
Warning: Gurobi version mismatch between Java 9.5.1 and C library 9.5.2
Warning: Gurobi version mismatch between Java 9.5.1 and Jni 9.5.2
Set parameter Presolve to value 2
Presolve removed 0 rows and 0 columns (presolve time = 14s) ...
Presolve removed 0 rows and 0 columns (presolve time = 21s) ...
Presolve removed 0 rows and 0 columns (presolve time = 36s) ...
Presolve removed 0 rows and 0 columns (presolve time = 45s) ...
Presolve removed 0 rows and 0 columns (presolve time = 50s) ...
Presolve removed 140040 rows and 2240 columns (presolve time = 74s) ...
Presolve removed 140040 rows and 2240 columns (presolve time = 80s) ...
Presolve removed 140040 rows and 2240 columns (presolve time = 89s) ...
Presolve removed 140040 rows and 2240 columns (presolve time = 107s) ...
Presolve removed 140040 rows and 2240 columns (presolve time = 149s) ...

Gurobi 9.5.2 (linux64, Java) logging started ven 10 feb 2023, 01:35:05

Set parameter Username
Academic license - for non-commercial use only - expires 2023-12-01
Warning: Gurobi version mismatch between Java 9.5.1 and C library 9.5.2
Warning: Gurobi version mismatch between Java 9.5.1 and Jni 9.5.2
Set parameter Presolve to value 1
Presolve removed 153312 rows and 2170 columns
Presolve time: 3.99s
Gurobi Optimizer version 9.5.2 build v9.5.2rc0 (linux64)
Thread count: 2 physical cores, 4 logical processors, using up to 4 threads
Optimize a model with 286107 rows, 6790 columns and 987180 nonzeros
Model fingerprint: 0xef09a6f7
Variable types: 0 continuous, 6790 integer (6790 binary)
Coefficient statistics:
  Matrix range     [1e+00, 5e+01]
  Objective range  [5e+00, 5e+00]
  Bounds range     [1e+00, 1e+00]
  RHS range        [1e+00, 4e+02]
Presolve removed 153312 rows and 2170 columns
Presolve time: 3.19s
Presolved: 132795 rows, 4620 columns, 449363 nonzeros
Variable types: 0 continuous, 4620 integer (4550 binary)
Found heuristic solution: objective 8200.0000000

Root simplex log...

Iteration    Objective       Primal Inf.    Dual Inf.      Time
       0      handle free variables                          5s
    2297    8.2000000e+03   0.000000e+00   0.000000e+00      5s
    2297    8.2000000e+03   0.000000e+00   0.000000e+00      5s

Root simplex log...

Iteration    Objective       Primal Inf.    Dual Inf.      Time
    2297    0.0000000e+00   4.050000e+02   0.000000e+00      5s

Root relaxation: cutoff, 2305 iterations, 1.21 seconds (0.37 work units)

    Nodes    |    Current Node    |     Objective Bounds      |     Work
 Expl Unexpl |  Obj  Depth IntInf | Incumbent    BestBd   Gap | It/Node Time

     0     0     cutoff    0      8200.00000 8200.00000  0.00%     -    5s

Explored 1 nodes (2305 simplex iterations) in 5.49 seconds (1.85 work units)
Thread count was 4 (of 4 available processors)

Solution count 1: 8200 

Optimal solution found (tolerance 1.00e-04)
Best objective 8.200000000000e+03, best bound 8.200000000000e+03, gap 0.0000%
Gurobi Optimizer version 9.5.2 build v9.5.2rc0 (linux64)
Thread count: 2 physical cores, 4 logical processors, using up to 4 threads
Optimize a model with 286107 rows, 6790 columns and 987180 nonzeros
Model fingerprint: 0xef09a6f7
Variable types: 0 continuous, 6790 integer (6790 binary)
Coefficient statistics:
  Matrix range     [1e+00, 5e+01]
  Objective range  [5e+00, 5e+00]
  Bounds range     [1e+00, 1e+00]
  RHS range        [1e+00, 4e+02]

Loaded MIP start from previous solve with objective 8200

Presolve removed 153312 rows and 2170 columns
Presolve time: 4.01s
Presolved: 132795 rows, 4620 columns, 449363 nonzeros
Variable types: 0 continuous, 4620 integer (4550 binary)

Root simplex log...

Iteration    Objective       Primal Inf.    Dual Inf.      Time
       0      handle free variables                          6s
    2297    8.2000000e+03   0.000000e+00   0.000000e+00      6s
    2297    8.2000000e+03   0.000000e+00   0.000000e+00      6s

Root relaxation: cutoff, 2305 iterations, 1.80 seconds (0.37 work units)

    Nodes    |    Current Node    |     Objective Bounds      |     Work
 Expl Unexpl |  Obj  Depth IntInf | Incumbent    BestBd   Gap | It/Node Time

     0     0     cutoff    0      8200.00000 8200.00000  0.00%     -    6s

Explored 1 nodes (2305 simplex iterations) in 6.42 seconds (1.74 work units)
Thread count was 4 (of 4 available processors)

Solution count 1: 8200 

Optimal solution found (tolerance 1.00e-04)
Best objective 8.200000000000e+03, best bound 8.200000000000e+03, gap 0.0000%

Gurobi 9.5.2 (linux64, Java) logging started ven 10 feb 2023, 01:35:58

Set parameter Username
Academic license - for non-commercial use only - expires 2023-12-01
Warning: Gurobi version mismatch between Java 9.5.1 and C library 9.5.2
Warning: Gurobi version mismatch between Java 9.5.1 and Jni 9.5.2
Set parameter Presolve to value 2
Presolve removed 144100 rows and 2240 columns (presolve time = 5s) ...
Presolve removed 152290 rows and 2240 columns (presolve time = 10s) ...
Presolve removed 152290 rows and 2240 columns
Presolve time: 10.42s
Gurobi Optimizer version 9.5.2 build v9.5.2rc0 (linux64)
Thread count: 2 physical cores, 4 logical processors, using up to 4 threads
Optimize a model with 286107 rows, 6790 columns and 987180 nonzeros
Model fingerprint: 0xef09a6f7
Variable types: 0 continuous, 6790 integer (6790 binary)
Coefficient statistics:
  Matrix range     [1e+00, 5e+01]
  Objective range  [5e+00, 5e+00]
  Bounds range     [1e+00, 1e+00]
  RHS range        [1e+00, 4e+02]
Presolve removed 144100 rows and 2240 columns (presolve time = 5s) ...
Presolve removed 182320 rows and 2240 columns (presolve time = 10s) ...
Presolve removed 188690 rows and 2240 columns
Presolve time: 14.59s
Presolved: 97417 rows, 4550 columns, 372435 nonzeros
Variable types: 0 continuous, 4550 integer (4550 binary)
Root relaxation presolve removed 10 rows and 0 columns
Root relaxation presolved: 97407 rows, 4560 columns, 367965 nonzeros


Root simplex log...

Iteration    Objective       Primal Inf.    Dual Inf.      Time
       0      handle free variables                         18s
     972    8.2000000e+03   0.000000e+00   0.000000e+00     18s
     972    8.2000000e+03   0.000000e+00   0.000000e+00     18s
     972    8.2000000e+03   0.000000e+00   0.000000e+00     18s

Use crossover to convert LP symmetric solution to basic solution...

Root crossover log...

    1290 PPushes remaining with PInf 0.0000000e+00                19s
       0 PPushes remaining with PInf 0.0000000e+00                19s

  Push phase complete: Pinf 0.0000000e+00, Dinf 0.0000000e+00     19s


Root simplex log...

Iteration    Objective       Primal Inf.    Dual Inf.      Time
    2265    8.2000000e+03   0.000000e+00   0.000000e+00     19s
    2265    8.2000000e+03   0.000000e+00   0.000000e+00     19s

Root relaxation: objective 8.200000e+03, 2265 iterations, 3.33 seconds (2.54 work units)
Total elapsed time = 21.72s

    Nodes    |    Current Node    |     Objective Bounds      |     Work
 Expl Unexpl |  Obj  Depth IntInf | Incumbent    BestBd   Gap | It/Node Time

     0     0 8200.00000    0   33          - 8200.00000      -     -   24s
H    0     0                    8215.0000000 8200.00000  0.18%     -   25s
H    0     0                    8200.0000000 8200.00000  0.00%     -   25s
     0     0 8200.00000    0   33 8200.00000 8200.00000  0.00%     -   25s

Explored 1 nodes (7177 simplex iterations) in 25.74 seconds (18.17 work units)
Thread count was 4 (of 4 available processors)

Solution count 2: 8200 8215 

Optimal solution found (tolerance 1.00e-04)
Best objective 8.200000000000e+03, best bound 8.200000000000e+03, gap 0.0000%
Gurobi Optimizer version 9.5.2 build v9.5.2rc0 (linux64)
Thread count: 2 physical cores, 4 logical processors, using up to 4 threads
Optimize a model with 286107 rows, 6790 columns and 987180 nonzeros
Model fingerprint: 0xef09a6f7
Variable types: 0 continuous, 6790 integer (6790 binary)
Coefficient statistics:
  Matrix range     [1e+00, 5e+01]
  Objective range  [5e+00, 5e+00]
  Bounds range     [1e+00, 1e+00]
  RHS range        [1e+00, 4e+02]

Loaded MIP start from previous solve with objective 8200

Presolve removed 144100 rows and 2240 columns (presolve time = 5s) ...
